(set-logic HORN)
(set-info :source |
    Benchmark: Horn constraint system (21 clauses, 13 relation symbols)
    Generated by Eldarica (http://lara.epfl.ch/w/eldarica)
    Output by Princess (http://www.philipp.ruemmer.org/princess.shtml)
|)
(set-info :status sat)
(declare-fun predh71_22 (Int Int Int Int Int Int Int Int Int Int Int Int Int Int Int Int Int Int Int Int Int Int Int Int Int Int) Bool)
(declare-fun predh64_6 (Int Int Int Int Int Int Int Int Int Int Int Int Int Int Int Int Int Int Int Int Int Int Int Int Int Int) Bool)
(declare-fun predh71_5 (Int Int Int Int Int Int Int Int Int Int Int Int Int Int Int Int Int Int Int Int Int Int Int Int Int Int) Bool)
(declare-fun predh80_13 (Int Int Int Int Int Int Int Int Int Int Int Int Int Int Int Int Int Int Int Int Int Int Int Int Int Int) Bool)
(declare-fun predh29_26 (Int Int Int Int Int Int Int Int Int Int Int Int Int Int Int Int Int Int Int Int Int Int Int Int Int Int) Bool)
(declare-fun predh74_2 (Int Int Int Int Int Int Int Int Int Int Int Int Int Int Int Int Int Int Int Int Int Int Int Int Int Int) Bool)
(declare-fun predh11_27 (Int Int Int Int Int Int Int Int Int Int Int Int Int Int Int Int Int Int Int Int Int Int Int Int Int Int) Bool)
(declare-fun predh74_19 (Int Int Int Int Int Int Int Int Int Int Int Int Int Int Int Int Int Int Int Int Int Int Int Int Int Int) Bool)
(declare-fun predh79_1 (Int Int Int Int Int Int Int Int Int Int Int Int Int Int Int Int Int Int Int Int Int Int Int Int Int Int) Bool)
(declare-fun predh64_25 (Int Int Int Int Int Int Int Int Int Int Int Int Int Int Int Int Int Int Int Int Int Int Int Int Int Int) Bool)
(declare-fun predh83_10 (Int Int Int Int Int Int Int Int Int Int Int Int Int Int Int Int Int Int Int Int Int Int Int Int Int Int) Bool)
(declare-fun predh86_7 (Int Int Int Int Int Int Int Int Int Int Int Int Int Int Int Int Int Int Int Int Int Int Int Int Int Int) Bool)
(declare-fun predh77_16 (Int Int Int Int Int Int Int Int Int Int Int Int Int Int Int Int Int Int Int Int Int Int Int Int Int Int) Bool)
(assert (forall ((var0 Int)) (forall ((var1 Int)) (forall ((var2 Int)) (forall ((var3 Int)) (forall ((var4 Int)) (forall ((var5 Int)) (forall ((var6 Int)) (forall ((var7 Int)) (forall ((var8 Int)) (forall ((var9 Int)) (forall ((var10 Int)) (forall ((var11 Int)) (forall ((var12 Int)) (forall ((var13 Int)) (forall ((var14 Int)) (forall ((var15 Int)) (forall ((var16 Int)) (forall ((var17 Int)) (forall ((var18 Int)) (forall ((var19 Int)) (forall ((var20 Int)) (forall ((var21 Int)) (forall ((var22 Int)) (forall ((var23 Int)) (forall ((var24 Int)) (forall ((var25 Int)) (not (predh79_1 var25 var24 var23 var22 var21 var20 var19 var18 var17 var16 var15 var14 var13 var12 var11 var10 var9 var8 var7 var6 var5 var4 var3 var2 var1 var0 ) ) ) ) ) ) ) ) ) ) ) ) ) ) ) ) ) ) ) ) ) ) ) ) ) ) ) ) )
(assert (forall ((var0 Int)) (forall ((var1 Int)) (forall ((var2 Int)) (forall ((var3 Int)) (forall ((var4 Int)) (forall ((var5 Int)) (forall ((var6 Int)) (forall ((var7 Int)) (forall ((var8 Int)) (forall ((var9 Int)) (forall ((var10 Int)) (forall ((var11 Int)) (forall ((var12 Int)) (forall ((var13 Int)) (forall ((var14 Int)) (forall ((var15 Int)) (forall ((var16 Int)) (forall ((var17 Int)) (forall ((var18 Int)) (forall ((var19 Int)) (forall ((var20 Int)) (forall ((var21 Int)) (forall ((var22 Int)) (forall ((var23 Int)) (forall ((var24 Int)) (forall ((var25 Int)) (not (and (and (<= 0 (+ (+ (* (- 1) var6 ) var1 ) (* (- 1) 1 ) ) ) (<= 0 var1 ) ) (and (predh74_2 var25 var24 var23 var22 var21 var20 var19 var18 var17 var16 var15 var14 var13 var12 var11 var10 var9 var8 var7 var6 var5 var4 var3 var2 var1 var0 ) (not (predh79_1 var25 var24 var23 var22 var21 var20 var19 var18 var17 var16 var15 var14 var13 var12 var11 var10 var9 var8 var7 var6 var5 var4 var3 var2 var1 var0 ) ) ) ) ) ) ) ) ) ) ) ) ) ) ) ) ) ) ) ) ) ) ) ) ) ) ) ) ) ) ) )
(assert (forall ((var0 Int)) (forall ((var1 Int)) (forall ((var2 Int)) (forall ((var3 Int)) (forall ((var4 Int)) (forall ((var5 Int)) (forall ((var6 Int)) (forall ((var7 Int)) (forall ((var8 Int)) (forall ((var9 Int)) (forall ((var10 Int)) (forall ((var11 Int)) (forall ((var12 Int)) (forall ((var13 Int)) (forall ((var14 Int)) (forall ((var15 Int)) (forall ((var16 Int)) (forall ((var17 Int)) (forall ((var18 Int)) (forall ((var19 Int)) (forall ((var20 Int)) (forall ((var21 Int)) (forall ((var22 Int)) (forall ((var23 Int)) (forall ((var24 Int)) (forall ((var25 Int)) (not (and (and (<= 0 (+ (+ (* (- 1) var6 ) var0 ) (* (- 1) 1 ) ) ) (<= 0 var0 ) ) (and (predh71_5 var25 var24 var23 var22 var21 var20 var19 var18 var17 var16 var15 var14 var13 var12 var11 var10 var9 var8 var7 var6 var5 var4 var3 var2 var1 var0 ) (not (predh74_2 var25 var24 var23 var22 var21 var20 var19 var18 var17 var16 var15 var14 var13 var12 var11 var10 var9 var8 var7 var6 var5 var4 var3 var2 var1 var0 ) ) ) ) ) ) ) ) ) ) ) ) ) ) ) ) ) ) ) ) ) ) ) ) ) ) ) ) ) ) ) )
(assert (forall ((var0 Int)) (forall ((var1 Int)) (forall ((var2 Int)) (forall ((var3 Int)) (forall ((var4 Int)) (forall ((var5 Int)) (forall ((var6 Int)) (forall ((var7 Int)) (forall ((var8 Int)) (forall ((var9 Int)) (forall ((var10 Int)) (forall ((var11 Int)) (forall ((var12 Int)) (forall ((var13 Int)) (forall ((var14 Int)) (forall ((var15 Int)) (forall ((var16 Int)) (forall ((var17 Int)) (forall ((var18 Int)) (forall ((var19 Int)) (forall ((var20 Int)) (forall ((var21 Int)) (forall ((var22 Int)) (forall ((var23 Int)) (forall ((var24 Int)) (forall ((var25 Int)) (not (and (and (<= 0 (+ (+ (* (- 1) var6 ) var0 ) (* (- 1) 1 ) ) ) (<= 0 (+ (* (- 1) var0 ) (* (- 1) 1 ) ) ) ) (and (predh71_5 var25 var24 var23 var22 var21 var20 var19 var18 var17 var16 var15 var14 var13 var12 var11 var10 var9 var8 var7 var6 var5 var4 var3 var2 var1 var0 ) (not (predh74_2 var25 var24 var23 var22 var21 var20 var19 var18 var17 var16 var15 var14 var13 var12 var11 var10 var9 var8 var7 var6 var5 var4 var3 var2 var1 var0 ) ) ) ) ) ) ) ) ) ) ) ) ) ) ) ) ) ) ) ) ) ) ) ) ) ) ) ) ) ) ) )
(assert (forall ((var0 Int)) (forall ((var1 Int)) (forall ((var2 Int)) (forall ((var3 Int)) (forall ((var4 Int)) (forall ((var5 Int)) (forall ((var6 Int)) (forall ((var7 Int)) (forall ((var8 Int)) (forall ((var9 Int)) (forall ((var10 Int)) (forall ((var11 Int)) (forall ((var12 Int)) (forall ((var13 Int)) (forall ((var14 Int)) (forall ((var15 Int)) (forall ((var16 Int)) (forall ((var17 Int)) (forall ((var18 Int)) (forall ((var19 Int)) (forall ((var20 Int)) (forall ((var21 Int)) (forall ((var22 Int)) (forall ((var23 Int)) (forall ((var24 Int)) (forall ((var25 Int)) (not (and (and (and (<= 0 (+ (+ var6 (* (- 1) var1 ) ) 1 ) ) (<= 0 (+ var6 (* (- 1) 1 ) ) ) ) (<= 0 var1 ) ) (and (predh64_6 var25 var24 var23 var22 var21 var20 var19 var18 var17 var16 var15 var14 var13 var12 var11 var10 var9 var8 var7 var6 var5 var4 var3 var2 var1 var0 ) (not (predh71_5 var25 var24 var23 var22 var21 var20 var19 var18 var17 var16 var15 var14 var13 var12 var11 var10 var9 var8 var7 var6 var5 var4 var3 var2 var1 var0 ) ) ) ) ) ) ) ) ) ) ) ) ) ) ) ) ) ) ) ) ) ) ) ) ) ) ) ) ) ) ) )
(assert (forall ((var0 Int)) (forall ((var1 Int)) (forall ((var2 Int)) (forall ((var3 Int)) (forall ((var4 Int)) (forall ((var5 Int)) (forall ((var6 Int)) (forall ((var7 Int)) (forall ((var8 Int)) (forall ((var9 Int)) (forall ((var10 Int)) (forall ((var11 Int)) (forall ((var12 Int)) (forall ((var13 Int)) (forall ((var14 Int)) (forall ((var15 Int)) (forall ((var16 Int)) (forall ((var17 Int)) (forall ((var18 Int)) (forall ((var19 Int)) (forall ((var20 Int)) (forall ((var21 Int)) (forall ((var22 Int)) (forall ((var23 Int)) (forall ((var24 Int)) (forall ((var25 Int)) (not (and (predh86_7 var25 var24 var23 var22 var21 var20 var19 var18 var17 var16 var15 var14 var13 var12 var11 var10 var9 var8 var7 var6 var5 var4 var3 var2 var1 var0 ) (not (predh64_6 var25 var24 var23 var22 var21 var20 var19 var18 var17 var16 var15 var14 var13 var12 var11 var10 var9 var8 var7 (+ var6 (* (- 1) 1 ) ) var5 var4 var3 var2 var1 var0 ) ) ) ) ) ) ) ) ) ) ) ) ) ) ) ) ) ) ) ) ) ) ) ) ) ) ) ) ) ) )
(assert (forall ((var0 Int)) (forall ((var1 Int)) (forall ((var2 Int)) (forall ((var3 Int)) (forall ((var4 Int)) (forall ((var5 Int)) (forall ((var6 Int)) (forall ((var7 Int)) (forall ((var8 Int)) (forall ((var9 Int)) (forall ((var10 Int)) (forall ((var11 Int)) (forall ((var12 Int)) (forall ((var13 Int)) (forall ((var14 Int)) (forall ((var15 Int)) (forall ((var16 Int)) (forall ((var17 Int)) (forall ((var18 Int)) (forall ((var19 Int)) (forall ((var20 Int)) (forall ((var21 Int)) (forall ((var22 Int)) (forall ((var23 Int)) (forall ((var24 Int)) (forall ((var25 Int)) (not (and (and (<= 0 (+ (* (- 1) var6 ) var0 ) ) (<= 0 (+ (* (- 1) var0 ) (* (- 1) 1 ) ) ) ) (and (predh83_10 var25 var24 var23 var22 var21 var20 var19 var18 var17 var16 var15 var14 var13 var12 var11 var10 var9 var8 var7 var6 var5 var4 var3 var2 var1 var0 ) (not (predh86_7 var25 var24 var23 var22 var21 var20 var19 var18 var17 var16 var15 var14 var13 var12 var11 var10 var9 var8 var7 var6 var5 var4 var3 var2 var1 var0 ) ) ) ) ) ) ) ) ) ) ) ) ) ) ) ) ) ) ) ) ) ) ) ) ) ) ) ) ) ) ) )
(assert (forall ((var0 Int)) (forall ((var1 Int)) (forall ((var2 Int)) (forall ((var3 Int)) (forall ((var4 Int)) (forall ((var5 Int)) (forall ((var6 Int)) (forall ((var7 Int)) (forall ((var8 Int)) (forall ((var9 Int)) (forall ((var10 Int)) (forall ((var11 Int)) (forall ((var12 Int)) (forall ((var13 Int)) (forall ((var14 Int)) (forall ((var15 Int)) (forall ((var16 Int)) (forall ((var17 Int)) (forall ((var18 Int)) (forall ((var19 Int)) (forall ((var20 Int)) (forall ((var21 Int)) (forall ((var22 Int)) (forall ((var23 Int)) (forall ((var24 Int)) (forall ((var25 Int)) (not (and (and (<= 0 (+ (* (- 1) var6 ) var0 ) ) (<= 0 var0 ) ) (and (predh83_10 var25 var24 var23 var22 var21 var20 var19 var18 var17 var16 var15 var14 var13 var12 var11 var10 var9 var8 var7 var6 var5 var4 var3 var2 var1 var0 ) (not (predh86_7 var25 var24 var23 var22 var21 var20 var19 var18 var17 var16 var15 var14 var13 var12 var11 var10 var9 var8 var7 var6 var5 var4 var3 var2 var1 var0 ) ) ) ) ) ) ) ) ) ) ) ) ) ) ) ) ) ) ) ) ) ) ) ) ) ) ) ) ) ) ) )
(assert (forall ((var0 Int)) (forall ((var1 Int)) (forall ((var2 Int)) (forall ((var3 Int)) (forall ((var4 Int)) (forall ((var5 Int)) (forall ((var6 Int)) (forall ((var7 Int)) (forall ((var8 Int)) (forall ((var9 Int)) (forall ((var10 Int)) (forall ((var11 Int)) (forall ((var12 Int)) (forall ((var13 Int)) (forall ((var14 Int)) (forall ((var15 Int)) (forall ((var16 Int)) (forall ((var17 Int)) (forall ((var18 Int)) (forall ((var19 Int)) (forall ((var20 Int)) (forall ((var21 Int)) (forall ((var22 Int)) (forall ((var23 Int)) (forall ((var24 Int)) (forall ((var25 Int)) (not (and (and (<= 0 (+ var6 (* (- 1) var1 ) ) ) (<= 0 (+ (* (- 1) var1 ) (* (- 1) 1 ) ) ) ) (and (predh80_13 var25 var24 var23 var22 var21 var20 var19 var18 var17 var16 var15 var14 var13 var12 var11 var10 var9 var8 var7 var6 var5 var4 var3 var2 var1 var0 ) (not (predh83_10 var25 var24 var23 var22 var21 var20 var19 var18 var17 var16 var15 var14 var13 var12 var11 var10 var9 var8 var7 var6 var5 var4 var3 var2 var1 var0 ) ) ) ) ) ) ) ) ) ) ) ) ) ) ) ) ) ) ) ) ) ) ) ) ) ) ) ) ) ) ) )
(assert (forall ((var0 Int)) (forall ((var1 Int)) (forall ((var2 Int)) (forall ((var3 Int)) (forall ((var4 Int)) (forall ((var5 Int)) (forall ((var6 Int)) (forall ((var7 Int)) (forall ((var8 Int)) (forall ((var9 Int)) (forall ((var10 Int)) (forall ((var11 Int)) (forall ((var12 Int)) (forall ((var13 Int)) (forall ((var14 Int)) (forall ((var15 Int)) (forall ((var16 Int)) (forall ((var17 Int)) (forall ((var18 Int)) (forall ((var19 Int)) (forall ((var20 Int)) (forall ((var21 Int)) (forall ((var22 Int)) (forall ((var23 Int)) (forall ((var24 Int)) (forall ((var25 Int)) (not (and (and (<= 0 (+ var6 (* (- 1) var1 ) ) ) (<= 0 var1 ) ) (and (predh80_13 var25 var24 var23 var22 var21 var20 var19 var18 var17 var16 var15 var14 var13 var12 var11 var10 var9 var8 var7 var6 var5 var4 var3 var2 var1 var0 ) (not (predh83_10 var25 var24 var23 var22 var21 var20 var19 var18 var17 var16 var15 var14 var13 var12 var11 var10 var9 var8 var7 var6 var5 var4 var3 var2 var1 var0 ) ) ) ) ) ) ) ) ) ) ) ) ) ) ) ) ) ) ) ) ) ) ) ) ) ) ) ) ) ) ) )
(assert (forall ((var0 Int)) (forall ((var1 Int)) (forall ((var2 Int)) (forall ((var3 Int)) (forall ((var4 Int)) (forall ((var5 Int)) (forall ((var6 Int)) (forall ((var7 Int)) (forall ((var8 Int)) (forall ((var9 Int)) (forall ((var10 Int)) (forall ((var11 Int)) (forall ((var12 Int)) (forall ((var13 Int)) (forall ((var14 Int)) (forall ((var15 Int)) (forall ((var16 Int)) (forall ((var17 Int)) (forall ((var18 Int)) (forall ((var19 Int)) (forall ((var20 Int)) (forall ((var21 Int)) (forall ((var22 Int)) (forall ((var23 Int)) (forall ((var24 Int)) (forall ((var25 Int)) (not (and (and (<= 0 (+ (* (- 1) var6 ) var0 ) ) (<= 0 (+ (* (- 1) var0 ) (* (- 1) 1 ) ) ) ) (and (predh77_16 var25 var24 var23 var22 var21 var20 var19 var18 var17 var16 var15 var14 var13 var12 var11 var10 var9 var8 var7 var6 var5 var4 var3 var2 var1 var0 ) (not (predh80_13 var25 var24 var23 var22 var21 var20 var19 var18 var17 var16 var15 var14 var13 var12 var11 var10 var9 var8 var7 var6 var5 var4 var3 var2 var1 var0 ) ) ) ) ) ) ) ) ) ) ) ) ) ) ) ) ) ) ) ) ) ) ) ) ) ) ) ) ) ) ) )
(assert (forall ((var0 Int)) (forall ((var1 Int)) (forall ((var2 Int)) (forall ((var3 Int)) (forall ((var4 Int)) (forall ((var5 Int)) (forall ((var6 Int)) (forall ((var7 Int)) (forall ((var8 Int)) (forall ((var9 Int)) (forall ((var10 Int)) (forall ((var11 Int)) (forall ((var12 Int)) (forall ((var13 Int)) (forall ((var14 Int)) (forall ((var15 Int)) (forall ((var16 Int)) (forall ((var17 Int)) (forall ((var18 Int)) (forall ((var19 Int)) (forall ((var20 Int)) (forall ((var21 Int)) (forall ((var22 Int)) (forall ((var23 Int)) (forall ((var24 Int)) (forall ((var25 Int)) (not (and (and (<= 0 (+ (* (- 1) var6 ) var0 ) ) (<= 0 var0 ) ) (and (predh77_16 var25 var24 var23 var22 var21 var20 var19 var18 var17 var16 var15 var14 var13 var12 var11 var10 var9 var8 var7 var6 var5 var4 var3 var2 var1 var0 ) (not (predh80_13 var25 var24 var23 var22 var21 var20 var19 var18 var17 var16 var15 var14 var13 var12 var11 var10 var9 var8 var7 var6 var5 var4 var3 var2 var1 var0 ) ) ) ) ) ) ) ) ) ) ) ) ) ) ) ) ) ) ) ) ) ) ) ) ) ) ) ) ) ) ) )
(assert (forall ((var0 Int)) (forall ((var1 Int)) (forall ((var2 Int)) (forall ((var3 Int)) (forall ((var4 Int)) (forall ((var5 Int)) (forall ((var6 Int)) (forall ((var7 Int)) (forall ((var8 Int)) (forall ((var9 Int)) (forall ((var10 Int)) (forall ((var11 Int)) (forall ((var12 Int)) (forall ((var13 Int)) (forall ((var14 Int)) (forall ((var15 Int)) (forall ((var16 Int)) (forall ((var17 Int)) (forall ((var18 Int)) (forall ((var19 Int)) (forall ((var20 Int)) (forall ((var21 Int)) (forall ((var22 Int)) (forall ((var23 Int)) (forall ((var24 Int)) (forall ((var25 Int)) (not (and (and (<= 0 (+ var6 (* (- 1) var1 ) ) ) (<= 0 (+ (* (- 1) var1 ) (* (- 1) 1 ) ) ) ) (and (predh74_19 var25 var24 var23 var22 var21 var20 var19 var18 var17 var16 var15 var14 var13 var12 var11 var10 var9 var8 var7 var6 var5 var4 var3 var2 var1 var0 ) (not (predh77_16 var25 var24 var23 var22 var21 var20 var19 var18 var17 var16 var15 var14 var13 var12 var11 var10 var9 var8 var7 var6 var5 var4 var3 var2 var1 var0 ) ) ) ) ) ) ) ) ) ) ) ) ) ) ) ) ) ) ) ) ) ) ) ) ) ) ) ) ) ) ) )
(assert (forall ((var0 Int)) (forall ((var1 Int)) (forall ((var2 Int)) (forall ((var3 Int)) (forall ((var4 Int)) (forall ((var5 Int)) (forall ((var6 Int)) (forall ((var7 Int)) (forall ((var8 Int)) (forall ((var9 Int)) (forall ((var10 Int)) (forall ((var11 Int)) (forall ((var12 Int)) (forall ((var13 Int)) (forall ((var14 Int)) (forall ((var15 Int)) (forall ((var16 Int)) (forall ((var17 Int)) (forall ((var18 Int)) (forall ((var19 Int)) (forall ((var20 Int)) (forall ((var21 Int)) (forall ((var22 Int)) (forall ((var23 Int)) (forall ((var24 Int)) (forall ((var25 Int)) (not (and (and (<= 0 (+ var6 (* (- 1) var1 ) ) ) (<= 0 var1 ) ) (and (predh74_19 var25 var24 var23 var22 var21 var20 var19 var18 var17 var16 var15 var14 var13 var12 var11 var10 var9 var8 var7 var6 var5 var4 var3 var2 var1 var0 ) (not (predh77_16 var25 var24 var23 var22 var21 var20 var19 var18 var17 var16 var15 var14 var13 var12 var11 var10 var9 var8 var7 var6 var5 var4 var3 var2 var1 var0 ) ) ) ) ) ) ) ) ) ) ) ) ) ) ) ) ) ) ) ) ) ) ) ) ) ) ) ) ) ) ) )
(assert (forall ((var0 Int)) (forall ((var1 Int)) (forall ((var2 Int)) (forall ((var3 Int)) (forall ((var4 Int)) (forall ((var5 Int)) (forall ((var6 Int)) (forall ((var7 Int)) (forall ((var8 Int)) (forall ((var9 Int)) (forall ((var10 Int)) (forall ((var11 Int)) (forall ((var12 Int)) (forall ((var13 Int)) (forall ((var14 Int)) (forall ((var15 Int)) (forall ((var16 Int)) (forall ((var17 Int)) (forall ((var18 Int)) (forall ((var19 Int)) (forall ((var20 Int)) (forall ((var21 Int)) (forall ((var22 Int)) (forall ((var23 Int)) (forall ((var24 Int)) (forall ((var25 Int)) (not (and (and (<= 0 (+ (+ (* (- 1) var6 ) var0 ) (* (- 1) 1 ) ) ) (<= 0 var0 ) ) (and (predh71_22 var25 var24 var23 var22 var21 var20 var19 var18 var17 var16 var15 var14 var13 var12 var11 var10 var9 var8 var7 var6 var5 var4 var3 var2 var1 var0 ) (not (predh74_19 var25 var24 var23 var22 var21 var20 var19 var18 var17 var16 var15 var14 var13 var12 var11 var10 var9 var8 var7 var6 var5 var4 var3 var2 var1 var0 ) ) ) ) ) ) ) ) ) ) ) ) ) ) ) ) ) ) ) ) ) ) ) ) ) ) ) ) ) ) ) )
(assert (forall ((var0 Int)) (forall ((var1 Int)) (forall ((var2 Int)) (forall ((var3 Int)) (forall ((var4 Int)) (forall ((var5 Int)) (forall ((var6 Int)) (forall ((var7 Int)) (forall ((var8 Int)) (forall ((var9 Int)) (forall ((var10 Int)) (forall ((var11 Int)) (forall ((var12 Int)) (forall ((var13 Int)) (forall ((var14 Int)) (forall ((var15 Int)) (forall ((var16 Int)) (forall ((var17 Int)) (forall ((var18 Int)) (forall ((var19 Int)) (forall ((var20 Int)) (forall ((var21 Int)) (forall ((var22 Int)) (forall ((var23 Int)) (forall ((var24 Int)) (forall ((var25 Int)) (not (and (and (<= 0 (+ (+ (* (- 1) var6 ) var0 ) (* (- 1) 1 ) ) ) (<= 0 (+ (* (- 1) var0 ) (* (- 1) 1 ) ) ) ) (and (predh71_22 var25 var24 var23 var22 var21 var20 var19 var18 var17 var16 var15 var14 var13 var12 var11 var10 var9 var8 var7 var6 var5 var4 var3 var2 var1 var0 ) (not (predh74_19 var25 var24 var23 var22 var21 var20 var19 var18 var17 var16 var15 var14 var13 var12 var11 var10 var9 var8 var7 var6 var5 var4 var3 var2 var1 var0 ) ) ) ) ) ) ) ) ) ) ) ) ) ) ) ) ) ) ) ) ) ) ) ) ) ) ) ) ) ) ) )
(assert (forall ((var0 Int)) (forall ((var1 Int)) (forall ((var2 Int)) (forall ((var3 Int)) (forall ((var4 Int)) (forall ((var5 Int)) (forall ((var6 Int)) (forall ((var7 Int)) (forall ((var8 Int)) (forall ((var9 Int)) (forall ((var10 Int)) (forall ((var11 Int)) (forall ((var12 Int)) (forall ((var13 Int)) (forall ((var14 Int)) (forall ((var15 Int)) (forall ((var16 Int)) (forall ((var17 Int)) (forall ((var18 Int)) (forall ((var19 Int)) (forall ((var20 Int)) (forall ((var21 Int)) (forall ((var22 Int)) (forall ((var23 Int)) (forall ((var24 Int)) (forall ((var25 Int)) (not (and (and (and (<= 0 (+ (+ var6 (* (- 1) var1 ) ) 1 ) ) (<= 0 (+ var6 (* (- 1) 1 ) ) ) ) (<= 0 var1 ) ) (and (predh64_25 var25 var24 var23 var22 var21 var20 var19 var18 var17 var16 var15 var14 var13 var12 var11 var10 var9 var8 var7 var6 var5 var4 var3 var2 var1 var0 ) (not (predh71_22 var25 var24 var23 var22 var21 var20 var19 var18 var17 var16 var15 var14 var13 var12 var11 var10 var9 var8 var7 var6 var5 var4 var3 var2 var1 var0 ) ) ) ) ) ) ) ) ) ) ) ) ) ) ) ) ) ) ) ) ) ) ) ) ) ) ) ) ) ) ) )
(assert (forall ((var0 Int)) (forall ((var1 Int)) (forall ((var2 Int)) (forall ((var3 Int)) (forall ((var4 Int)) (forall ((var5 Int)) (forall ((var6 Int)) (forall ((var7 Int)) (forall ((var8 Int)) (forall ((var9 Int)) (forall ((var10 Int)) (forall ((var11 Int)) (forall ((var12 Int)) (forall ((var13 Int)) (forall ((var14 Int)) (forall ((var15 Int)) (forall ((var16 Int)) (forall ((var17 Int)) (forall ((var18 Int)) (forall ((var19 Int)) (forall ((var20 Int)) (forall ((var21 Int)) (forall ((var22 Int)) (forall ((var23 Int)) (forall ((var24 Int)) (forall ((var25 Int)) (not (and (and (and (<= 0 (+ (+ var6 (* (- 1) var1 ) ) 1 ) ) (<= 0 (+ var6 (* (- 1) 1 ) ) ) ) (<= 0 (+ (* (- 1) var1 ) (* (- 1) 1 ) ) ) ) (and (predh64_25 var25 var24 var23 var22 var21 var20 var19 var18 var17 var16 var15 var14 var13 var12 var11 var10 var9 var8 var7 var6 var5 var4 var3 var2 var1 var0 ) (not (predh71_22 var25 var24 var23 var22 var21 var20 var19 var18 var17 var16 var15 var14 var13 var12 var11 var10 var9 var8 var7 var6 var5 var4 var3 var2 var1 var0 ) ) ) ) ) ) ) ) ) ) ) ) ) ) ) ) ) ) ) ) ) ) ) ) ) ) ) ) ) ) ) )
(assert (forall ((var0 Int)) (forall ((var1 Int)) (forall ((var2 Int)) (forall ((var3 Int)) (forall ((var4 Int)) (forall ((var5 Int)) (forall ((var6 Int)) (forall ((var7 Int)) (forall ((var8 Int)) (forall ((var9 Int)) (forall ((var10 Int)) (forall ((var11 Int)) (forall ((var12 Int)) (forall ((var13 Int)) (forall ((var14 Int)) (forall ((var15 Int)) (forall ((var16 Int)) (forall ((var17 Int)) (forall ((var18 Int)) (forall ((var19 Int)) (forall ((var20 Int)) (forall ((var21 Int)) (forall ((var22 Int)) (forall ((var23 Int)) (forall ((var24 Int)) (forall ((var25 Int)) (not (and (<= 0 (+ (+ (* (- 1) var7 ) var6 ) (* (- 1) 1 ) ) ) (and (predh29_26 var25 var24 var23 var22 var21 var20 var19 var18 var17 var16 var15 var14 var13 var12 var11 var10 var9 var8 var7 var6 var5 var4 var3 var2 var1 var0 ) (not (predh64_25 var25 var24 var23 var22 var21 var20 var19 var18 var17 var16 var15 var14 var13 var12 var11 var10 var9 var8 var7 (+ var7 (* (- 1) 1 ) ) var5 var4 var3 var2 var1 var0 ) ) ) ) ) ) ) ) ) ) ) ) ) ) ) ) ) ) ) ) ) ) ) ) ) ) ) ) ) ) ) )
(assert (forall ((var0 Int)) (forall ((var1 Int)) (forall ((var2 Int)) (forall ((var3 Int)) (forall ((var4 Int)) (forall ((var5 Int)) (forall ((var6 Int)) (forall ((var7 Int)) (forall ((var8 Int)) (forall ((var9 Int)) (forall ((var10 Int)) (forall ((var11 Int)) (forall ((var12 Int)) (forall ((var13 Int)) (forall ((var14 Int)) (forall ((var15 Int)) (forall ((var16 Int)) (forall ((var17 Int)) (forall ((var18 Int)) (forall ((var19 Int)) (forall ((var20 Int)) (forall ((var21 Int)) (forall ((var22 Int)) (forall ((var23 Int)) (forall ((var24 Int)) (forall ((var25 Int)) (not (and (and (and (and (<= 0 (+ (* (- 1) var3 ) 1 ) ) (<= 0 (+ var2 (* (- 1) 1 ) ) ) ) (<= 0 (+ (* (- 1) var1 ) 1 ) ) ) (<= 0 (+ var0 (* (- 1) 1 ) ) ) ) (and (predh11_27 var25 var24 var23 var22 var21 var20 var19 var18 var17 var16 var15 var14 var13 var12 var11 var10 var9 var8 var7 var6 var5 var4 var3 var2 var1 var0 ) (not (predh29_26 var25 var24 var23 var22 var21 var20 var19 var18 var17 var16 var15 var14 var13 var12 var11 var10 var9 var8 var7 (* 2 1 ) var5 var4 var3 var2 var1 var0 ) ) ) ) ) ) ) ) ) ) ) ) ) ) ) ) ) ) ) ) ) ) ) ) ) ) ) ) ) ) ) )
(assert (forall ((var0 Int)) (forall ((var1 Int)) (forall ((var2 Int)) (forall ((var3 Int)) (forall ((var4 Int)) (forall ((var5 Int)) (forall ((var6 Int)) (forall ((var7 Int)) (forall ((var8 Int)) (forall ((var9 Int)) (forall ((var10 Int)) (forall ((var11 Int)) (forall ((var12 Int)) (forall ((var13 Int)) (not (and (<= 0 (+ var0 (* (- 4) 1 ) ) ) (not (predh11_27 var8 var7 var6 var5 var4 var0 var3 var13 var1 var12 var11 var10 var9 var8 var7 var6 var5 var4 var0 var3 var2 var1 1 var0 1 var0 ) ) ) ) ) ) ) ) ) ) ) ) ) ) ) ) ) ) )
(check-sat)
